9 100
17 82
16 74
7 76
10 68
5 67
10 55
5 45
29 60
20 55
29 51
27 43
28 43
30 23
30 9
25 5
20 18
17 22
8 19
12 13
6 8
64 8
62 1
55 3
52 18
48 19
40 35
44 33
54 38
58 43
63 36
68 40
72 42
80 39
81 34
73 28
69 23
79 17
77 13
90 9
98 7
87 18
92 34
93 54
95 57
89 60
95 86
84 94
78 94
78 92
82 88
83 86
75 81
81 76
76 73
79 70
74 67
56 63
48 67
42 67
37 64
25 76
41 76
48 82
48 83
57 91
58 85
67 88
64 96
67 99
